; benchmark generated from python API
(set-info :status unknown)
(declare-datatypes ((RealState 0)) (((RMk1 (rval1 Real)) (RMk2 (rval2 Real)))))
 (assert
 (forall ((|v11:0| Real) )(forall ((|v10:1| Real) )(forall ((|v9:2| Real) )(forall ((|v8:3| Real) )(exists ((|v7:4_st| RealState) (val!4116 Real) )(exists ((|v6:5_st| RealState) (val!4117 Real) )(exists ((|v5:6_st| RealState) (val!4118 Real) )(exists ((|v4:7_st| RealState) (val!4119 Real) )(forall ((|v3:8| Real) )(forall ((|v2:9| Real) )(forall ((|v1:10| Real) )(forall ((|v0:11| Real) )(let ((?x2386 (* 4.0 |v1:10|)))
 (let ((?x2457 (+ (+ (+ (* (- 19.0) |v2:9|) (* 9.0 |v2:9|)) (* 18.0 (rval2 |v5:6_st|))) ?x2386)))
 (let ((?x730 (- 13.0)))
 (let ((?x111 (rval2 |v5:6_st|)))
 (let ((?x1794 (- 9.0)))
 (let ((?x1041 (* ?x1794 ?x111)))
 (let ((?x599 (+ (+ (+ (* 4.0 ?x111) (* (- 3.0) |v0:11|)) ?x1041) (* 2.0 (rval2 |v4:7_st|)))))
 (let ((?x1253 (- 20.0)))
 (let ((?x1054 (* 15.0 |v1:10|)))
 (let ((?x752 (* 5.0 |v3:8|)))
 (let ((?x1393 (+ (* (- 7.0) |v1:10|) ?x752)))
 (let (($x2904 (or (<= (+ (+ ?x1393 (* (- 11.0) (rval2 |v4:7_st|))) ?x1054) ?x1253) (<= ?x599 ?x730))))
 (let ((?x1754 (* 14.0 |v11:0|)))
 (let ((?x473 (+ (+ (+ (* 20.0 ?x111) (* (- 1.0) |v9:2|)) (* 12.0 |v1:10|)) ?x1754)))
 (let ((?x3180 (- 14.0)))
 (let ((?x849 (* ?x3180 |v1:10|)))
 (let ((?x655 (+ (+ (+ (* 5.0 (rval2 |v7:4_st|)) (* ?x3180 |v2:9|)) (* (- 12.0) |v10:1|)) ?x849)))
 (let ((?x745 (- 7.0)))
 (let ((?x1022 (* ?x745 |v2:9|)))
 (let ((?x1547 (+ (+ (+ (* 15.0 (rval2 |v4:7_st|)) (* 0.0 |v1:10|)) (* (- 18.0) |v3:8|)) ?x1022)))
 (let ((?x1385 (- 6.0)))
 (let ((?x1091 (* 10.0 |v2:9|)))
 (let ((?x1851 (- 3.0)))
 (let ((?x1587 (* ?x1851 ?x111)))
 (let (($x2747 (<= (+ (+ (+ (* (- 19.0) (rval2 |v7:4_st|)) (* 7.0 |v9:2|)) ?x1587) ?x1091) ?x1385)))
 (let ((?x2210 (- 10.0)))
 (let ((?x2768 (* ?x1851 |v3:8|)))
 (let ((?x2603 (- 18.0)))
 (let ((?x1724 (* ?x2603 |v2:9|)))
 (let ((?x1077 (+ (+ (+ (* (- 17.0) (rval2 |v7:4_st|)) (* ?x745 (rval2 |v4:7_st|))) ?x1724) ?x2768)))
 (let ((?x2961 (- 16.0)))
 (let ((?x2242 (* ?x2961 |v3:8|)))
 (let (($x1520 (<= (+ (+ (+ (* 19.0 |v8:3|) (* (- 1.0) (rval2 |v6:5_st|))) |v0:11|) ?x2242) ?x730)))
 (let (($x981 (or (and (and $x1520 (<= ?x1077 ?x2210)) (or $x2747 (<= ?x1547 ?x745))) (and (and (<= ?x655 ?x1253) (<= ?x473 0.0)) $x2904))))
 (let ((?x520 (+ (+ (* 18.0 (rval2 |v4:7_st|)) (* ?x1253 |v9:2|)) (* 17.0 (rval2 |v4:7_st|)))))
 (let ((?x813 (rval2 |v6:5_st|)))
 (let ((?x74 (- 15.0)))
 (let ((?x1972 (* ?x74 ?x813)))
 (let (($x1097 (and (<= (+ (+ (+ (* 6.0 |v3:8|) (* ?x74 |v11:0|)) ?x1587) ?x1972) 4.0) (<= (+ ?x520 (* 3.0 |v9:2|)) 11.0))))
 (let ((?x3124 (* 7.0 ?x813)))
 (let (($x976 (<= (+ (+ (+ (* ?x1851 |v0:11|) (* 17.0 |v1:10|)) (* 11.0 ?x111)) ?x3124) 5.0)))
 (let ((?x253 (- 17.0)))
 (let ((?x3129 (* 7.0 |v0:11|)))
 (let ((?x1317 (+ (+ (+ (* 10.0 (rval2 |v7:4_st|)) (* 10.0 |v8:3|)) (* ?x730 ?x813)) ?x3129)))
 (let ((?x1616 (+ (+ (+ (* 12.0 |v9:2|) (* 2.0 |v0:11|)) (* ?x2210 |v10:1|)) (* 18.0 |v10:1|))))
 (let ((?x2556 (+ (+ (+ ?x1972 (* 6.0 |v11:0|)) (* (- 2.0) ?x111)) (* 14.0 ?x111))))
 (let ((?x2885 (* 15.0 |v11:0|)))
 (let (($x914 (<= (+ (+ (+ (* 0.0 (rval2 |v7:4_st|)) ?x1041) (* 5.0 |v8:3|)) ?x2885) 15.0)))
 (let ((?x2062 (* 8.0 |v3:8|)))
 (let ((?x2264 (+ (+ (+ (* 0.0 (rval2 |v4:7_st|)) (* 20.0 |v8:3|)) (* ?x730 |v11:0|)) ?x2062)))
 (let (($x3009 (or (or (and (<= ?x2264 14.0) $x914) (or (<= ?x2556 ?x745) (<= ?x1616 ?x3180))) (and (and (<= ?x1317 ?x253) $x976) $x1097))))
 (let ((?x1755 (* 2.0 |v2:9|)))
 (let (($x50 (<= (+ (+ (+ (* ?x1253 |v1:10|) (* ?x1794 |v11:0|)) (* ?x2210 |v8:3|)) ?x1755) 7.0)))
 (let ((?x148 (+ (+ (+ (* ?x745 |v3:8|) (* (- 11.0) |v2:9|)) (* (- 19.0) ?x813)) (* ?x1851 |v8:3|))))
 (let ((?x282 (- 8.0)))
 (let ((?x2398 (+ (+ (+ ?x1054 (* ?x1794 |v8:3|)) (* 19.0 (rval2 |v4:7_st|))) (* ?x74 ?x111))))
 (let ((?x2966 (rval2 |v4:7_st|)))
 (let ((?x2308 (* 18.0 ?x2966)))
 (let (($x237 (<= (+ (+ (+ (* ?x1253 (rval2 |v7:4_st|)) ?x1754) (* ?x74 |v8:3|)) ?x2308) ?x730)))
 (let ((?x321 (* 4.0 |v2:9|)))
 (let ((?x928 (+ (+ (+ (* ?x2961 (rval2 |v7:4_st|)) (* ?x1794 ?x2966)) (* (- 19.0) |v8:3|)) ?x321)))
 (let ((?x479 (+ (+ (+ ?x1054 (* 3.0 ?x2966)) (* 5.0 |v8:3|)) (* (- 1.0) |v11:0|))))
 (let (($x789 (and (or (<= ?x479 ?x1253) (<= ?x928 10.0)) (or (or $x237 (<= ?x2398 ?x282)) (and (<= ?x148 8.0) $x50)))))
 (let ((?x2965 (* 12.0 ?x111)))
 (let ((?x2564 (+ (+ (+ (* 10.0 |v9:2|) (* (- 1.0) |v0:11|)) (* 20.0 |v11:0|)) ?x2965)))
 (let (($x2465 (and (or (and (<= ?x2564 ?x1253) $x789) (or $x3009 $x981)) (<= ?x2457 13.0))))
 (let (($x3027 (not (= |v4:7_st| (RMk1 val!4119)))))
 (let (($x820 (not (= |v5:6_st| (RMk1 val!4118)))))
 (let (($x1286 (not (= |v6:5_st| (RMk1 val!4117)))))
 (let (($x2483 (not (= |v7:4_st| (RMk1 val!4116)))))
 (and $x2483 $x1286 $x820 $x3027 $x2465))))))))))))))))))))))))))))))))))))))))))))))))))))))))))))))))))))))))
 )
 )
 )
 )
 )
 )
 )
 )
 )
 )
 )
 )
(check-sat)
